HorasDisponibles = 24 ; 		% Cantidad de horas habiles para que barco pueda partir

NumBarcos = 120 ; 		% Cantidad de barcos que cruzaran el canal

NumCanales = 8;  

Velocidades = [ 
66000  ,		%  Barco 1
66000  ,		%  Barco 2
66000  ,		%  Barco 3
66000  ,		%  Barco 4
66000  ,		%  Barco 5
66000  ,		%  Barco 6
66000  ,		%  Barco 7
66000  ,		%  Barco 8
557  ,		%  Barco 9
227  ,		%  Barco 10
385  ,		%  Barco 11
720  ,		%  Barco 12
591  ,		%  Barco 13
581  ,		%  Barco 14
639  ,		%  Barco 15
528  ,		%  Barco 16
721  ,		%  Barco 17
435  ,		%  Barco 18
502  ,		%  Barco 19
308  ,		%  Barco 20
341  ,		%  Barco 21
366  ,		%  Barco 22
576  ,		%  Barco 23
418  ,		%  Barco 24
599  ,		%  Barco 25
598  ,		%  Barco 26
281  ,		%  Barco 27
399  ,		%  Barco 28
381  ,		%  Barco 29
707  ,		%  Barco 30
606  ,		%  Barco 31
411  ,		%  Barco 32
457  ,		%  Barco 33
419  ,		%  Barco 34
463  ,		%  Barco 35
586  ,		%  Barco 36
381  ,		%  Barco 37
724  ,		%  Barco 38
316  ,		%  Barco 39
593  ,		%  Barco 40
338  ,		%  Barco 41
368  ,		%  Barco 42
490  ,		%  Barco 43
740  ,		%  Barco 44
482  ,		%  Barco 45
646  ,		%  Barco 46
575  ,		%  Barco 47
434  ,		%  Barco 48
517  ,		%  Barco 49
617  ,		%  Barco 50
472  ,		%  Barco 51
576  ,		%  Barco 52
527  ,		%  Barco 53
598  ,		%  Barco 54
263  ,		%  Barco 55
524  ,		%  Barco 56
701  ,		%  Barco 57
535  ,		%  Barco 58
591  ,		%  Barco 59
420  ,		%  Barco 60
461  ,		%  Barco 61
649  ,		%  Barco 62
284  ,		%  Barco 63
683  ,		%  Barco 64
568  ,		%  Barco 65
434  ,		%  Barco 66
288  ,		%  Barco 67
232  ,		%  Barco 68
271  ,		%  Barco 69
398  ,		%  Barco 70
697  ,		%  Barco 71
354  ,		%  Barco 72
660  ,		%  Barco 73
770  ,		%  Barco 74
500  ,		%  Barco 75
597  ,		%  Barco 76
512  ,		%  Barco 77
513  ,		%  Barco 78
355  ,		%  Barco 79
444  ,		%  Barco 80
454  ,		%  Barco 81
361  ,		%  Barco 82
548  ,		%  Barco 83
476  ,		%  Barco 84
735  ,		%  Barco 85
274  ,		%  Barco 86
446  ,		%  Barco 87
479  ,		%  Barco 88
463  ,		%  Barco 89
362  ,		%  Barco 90
409  ,		%  Barco 91
266  ,		%  Barco 92
392  ,		%  Barco 93
441  ,		%  Barco 94
145  ,		%  Barco 95
631  ,		%  Barco 96
118  ,		%  Barco 97
262  ,		%  Barco 98
355  ,		%  Barco 99
354  ,		%  Barco 100
630  ,		%  Barco 101
530  ,		%  Barco 102
671  ,		%  Barco 103
474  ,		%  Barco 104
209  ,		%  Barco 105
682  ,		%  Barco 106
495  ,		%  Barco 107
497  ,		%  Barco 108
307  ,		%  Barco 109
676  ,		%  Barco 110
659  ,		%  Barco 111
282  ,		%  Barco 112
282  ,		%  Barco 113
496  ,		%  Barco 114
278  ,		%  Barco 115
508  ,		%  Barco 116
375  ,		%  Barco 117
433  ,		%  Barco 118
595  ,		%  Barco 119
678  ,		%  Barco 120
696  ,		%  Barco 121
671  ,		%  Barco 122
449  ,		%  Barco 123
463  ,		%  Barco 124
330  ,		%  Barco 125
585  ,		%  Barco 126
574  ,		%  Barco 127
241  ,		%  Barco 128
66000  ,		%  Barco 129
66000  ,		%  Barco 130
66000  ,		%  Barco 131
66000  ,		%  Barco 132
66000  ,		%  Barco 133
66000  ,		%  Barco 134
66000  ,		%  Barco 135
66000  ,		%  Barco 136
 ]; 
HoraEstimadaCruce = [ 
0  ,		%  Barco 1
0  ,		%  Barco 2
0  ,		%  Barco 3
0  ,		%  Barco 4
0  ,		%  Barco 5
0  ,		%  Barco 6
0  ,		%  Barco 7
0  ,		%  Barco 8
21  ,		%  Barco 9
0  ,		%  Barco 10
3  ,		%  Barco 11
19  ,		%  Barco 12
21  ,		%  Barco 13
11  ,		%  Barco 14
0  ,		%  Barco 15
5  ,		%  Barco 16
7  ,		%  Barco 17
14  ,		%  Barco 18
13  ,		%  Barco 19
12  ,		%  Barco 20
12  ,		%  Barco 21
0  ,		%  Barco 22
8  ,		%  Barco 23
13  ,		%  Barco 24
16  ,		%  Barco 25
8  ,		%  Barco 26
16  ,		%  Barco 27
21  ,		%  Barco 28
14  ,		%  Barco 29
20  ,		%  Barco 30
2  ,		%  Barco 31
17  ,		%  Barco 32
14  ,		%  Barco 33
4  ,		%  Barco 34
9  ,		%  Barco 35
9  ,		%  Barco 36
17  ,		%  Barco 37
8  ,		%  Barco 38
18  ,		%  Barco 39
5  ,		%  Barco 40
1  ,		%  Barco 41
21  ,		%  Barco 42
18  ,		%  Barco 43
3  ,		%  Barco 44
9  ,		%  Barco 45
5  ,		%  Barco 46
7  ,		%  Barco 47
20  ,		%  Barco 48
8  ,		%  Barco 49
17  ,		%  Barco 50
14  ,		%  Barco 51
0  ,		%  Barco 52
12  ,		%  Barco 53
10  ,		%  Barco 54
13  ,		%  Barco 55
9  ,		%  Barco 56
17  ,		%  Barco 57
21  ,		%  Barco 58
20  ,		%  Barco 59
8  ,		%  Barco 60
9  ,		%  Barco 61
21  ,		%  Barco 62
2  ,		%  Barco 63
2  ,		%  Barco 64
14  ,		%  Barco 65
19  ,		%  Barco 66
18  ,		%  Barco 67
12  ,		%  Barco 68
24  ,		%  Barco 69
24  ,		%  Barco 70
19  ,		%  Barco 71
20  ,		%  Barco 72
11  ,		%  Barco 73
9  ,		%  Barco 74
5  ,		%  Barco 75
8  ,		%  Barco 76
9  ,		%  Barco 77
15  ,		%  Barco 78
10  ,		%  Barco 79
17  ,		%  Barco 80
11  ,		%  Barco 81
4  ,		%  Barco 82
2  ,		%  Barco 83
8  ,		%  Barco 84
2  ,		%  Barco 85
20  ,		%  Barco 86
12  ,		%  Barco 87
1  ,		%  Barco 88
15  ,		%  Barco 89
13  ,		%  Barco 90
15  ,		%  Barco 91
16  ,		%  Barco 92
7  ,		%  Barco 93
15  ,		%  Barco 94
9  ,		%  Barco 95
13  ,		%  Barco 96
11  ,		%  Barco 97
23  ,		%  Barco 98
20  ,		%  Barco 99
5  ,		%  Barco 100
18  ,		%  Barco 101
19  ,		%  Barco 102
21  ,		%  Barco 103
15  ,		%  Barco 104
23  ,		%  Barco 105
16  ,		%  Barco 106
24  ,		%  Barco 107
10  ,		%  Barco 108
19  ,		%  Barco 109
22  ,		%  Barco 110
9  ,		%  Barco 111
12  ,		%  Barco 112
14  ,		%  Barco 113
23  ,		%  Barco 114
10  ,		%  Barco 115
20  ,		%  Barco 116
19  ,		%  Barco 117
16  ,		%  Barco 118
8  ,		%  Barco 119
6  ,		%  Barco 120
3  ,		%  Barco 121
10  ,		%  Barco 122
8  ,		%  Barco 123
16  ,		%  Barco 124
8  ,		%  Barco 125
3  ,		%  Barco 126
22  ,		%  Barco 127
1  ,		%  Barco 128
24  ,		%  Barco 129
24  ,		%  Barco 130
24  ,		%  Barco 131
24  ,		%  Barco 132
24  ,		%  Barco 133
24  ,		%  Barco 134
24  ,		%  Barco 135
24  ,		%  Barco 136
 ]; 
PuntoDeArranque = [ 
0  ,		%  Barco 1
0  ,		%  Barco 2
0  ,		%  Barco 3
0  ,		%  Barco 4
0  ,		%  Barco 5
0  ,		%  Barco 6
0  ,		%  Barco 7
0  ,		%  Barco 8
1  ,		%  Barco 9
1  ,		%  Barco 10
0  ,		%  Barco 11
1  ,		%  Barco 12
0  ,		%  Barco 13
0  ,		%  Barco 14
0  ,		%  Barco 15
0  ,		%  Barco 16
0  ,		%  Barco 17
0  ,		%  Barco 18
0  ,		%  Barco 19
1  ,		%  Barco 20
0  ,		%  Barco 21
0  ,		%  Barco 22
1  ,		%  Barco 23
0  ,		%  Barco 24
1  ,		%  Barco 25
1  ,		%  Barco 26
0  ,		%  Barco 27
0  ,		%  Barco 28
0  ,		%  Barco 29
1  ,		%  Barco 30
0  ,		%  Barco 31
1  ,		%  Barco 32
0  ,		%  Barco 33
1  ,		%  Barco 34
1  ,		%  Barco 35
1  ,		%  Barco 36
1  ,		%  Barco 37
0  ,		%  Barco 38
1  ,		%  Barco 39
0  ,		%  Barco 40
0  ,		%  Barco 41
0  ,		%  Barco 42
0  ,		%  Barco 43
0  ,		%  Barco 44
0  ,		%  Barco 45
1  ,		%  Barco 46
0  ,		%  Barco 47
1  ,		%  Barco 48
0  ,		%  Barco 49
1  ,		%  Barco 50
1  ,		%  Barco 51
0  ,		%  Barco 52
0  ,		%  Barco 53
1  ,		%  Barco 54
1  ,		%  Barco 55
0  ,		%  Barco 56
0  ,		%  Barco 57
0  ,		%  Barco 58
0  ,		%  Barco 59
1  ,		%  Barco 60
1  ,		%  Barco 61
0  ,		%  Barco 62
1  ,		%  Barco 63
0  ,		%  Barco 64
1  ,		%  Barco 65
0  ,		%  Barco 66
1  ,		%  Barco 67
1  ,		%  Barco 68
1  ,		%  Barco 69
1  ,		%  Barco 70
1  ,		%  Barco 71
1  ,		%  Barco 72
0  ,		%  Barco 73
1  ,		%  Barco 74
0  ,		%  Barco 75
1  ,		%  Barco 76
1  ,		%  Barco 77
1  ,		%  Barco 78
1  ,		%  Barco 79
0  ,		%  Barco 80
1  ,		%  Barco 81
0  ,		%  Barco 82
0  ,		%  Barco 83
1  ,		%  Barco 84
0  ,		%  Barco 85
0  ,		%  Barco 86
1  ,		%  Barco 87
0  ,		%  Barco 88
1  ,		%  Barco 89
1  ,		%  Barco 90
0  ,		%  Barco 91
1  ,		%  Barco 92
1  ,		%  Barco 93
1  ,		%  Barco 94
1  ,		%  Barco 95
0  ,		%  Barco 96
0  ,		%  Barco 97
1  ,		%  Barco 98
1  ,		%  Barco 99
0  ,		%  Barco 100
1  ,		%  Barco 101
0  ,		%  Barco 102
0  ,		%  Barco 103
1  ,		%  Barco 104
0  ,		%  Barco 105
0  ,		%  Barco 106
1  ,		%  Barco 107
0  ,		%  Barco 108
0  ,		%  Barco 109
1  ,		%  Barco 110
1  ,		%  Barco 111
0  ,		%  Barco 112
1  ,		%  Barco 113
0  ,		%  Barco 114
0  ,		%  Barco 115
1  ,		%  Barco 116
0  ,		%  Barco 117
1  ,		%  Barco 118
1  ,		%  Barco 119
0  ,		%  Barco 120
0  ,		%  Barco 121
1  ,		%  Barco 122
0  ,		%  Barco 123
0  ,		%  Barco 124
1  ,		%  Barco 125
0  ,		%  Barco 126
1  ,		%  Barco 127
1  ,		%  Barco 128
0  ,		%  Barco 129
0  ,		%  Barco 130
0  ,		%  Barco 131
0  ,		%  Barco 132
0  ,		%  Barco 133
0  ,		%  Barco 134
0  ,		%  Barco 135
0  ,		%  Barco 136
 ]; 
